Minimize
	value: tt

Subject to
tt + 1000 s_1_1 > 0.0
tt - t_1_1 - 1000.000000 s_1_1  + 0.000000 s_1_8  + 0.000000 s_1_7  > -983.993911
tt + 1000 s_2_1 > 0.0
tt - t_2_1 - 1000.000000 s_2_1  + 0.000000 s_2_8  + 0.000000 s_2_7  > -980.360184
tt + 1000 s_1_2 > 0.0
tt - t_1_2 - 1000.000000 s_1_2  + 0.000000 s_1_7  > -983.972500
tt + 1000 s_2_2 > 0.0
tt - t_2_2 - 1000.000000 s_2_2  + 0.000000 s_2_7  > -979.424155
tt + 1000 s_1_3 > 0.0
tt - t_1_3 - 1000.000000 s_1_3  + 0.000000 s_1_8  + 0.000000 s_1_7  > -999.170000
tt + 1000 s_2_3 > 0.0
tt - t_2_3 - 1000.000000 s_2_3  + 0.000000 s_2_8  + 0.000000 s_2_7  > -997.978211
tt + 1000 s_1_4 > 0.0
tt - t_1_4 - 1000.000000 s_1_4  + 0.000000 s_1_7  > -998.250644
tt + 1000 s_2_4 > 0.0
tt - t_2_4 - 1000.000000 s_2_4  + 0.000000 s_2_7  > -995.159920
tt + 1000 s_1_5 > 0.0
tt - t_1_5 - 1000.000000 s_1_5  + 0.000000 s_1_8  > -992.276157
tt + 1000 s_2_5 > 0.0
tt - t_2_5 - 1000.000000 s_2_5  + 0.000000 s_2_8  > -990.518347
tt + 1000 s_1_6 > 0.0
tt - t_1_6 - 1000.000000 s_1_6  + 0.000000 s_1_5  + 0.000000 s_1_2  + 0.000000 s_1_4  + 0.000000 s_1_3  + 0.000000 s_1_7  + 0.000000 s_1_1  > -999.382500
tt + 1000 s_2_6 > 0.0
tt - t_2_6 - 1000.000000 s_2_6  + 0.000000 s_2_5  + 0.000000 s_2_2  + 0.000000 s_2_4  + 0.000000 s_2_3  + 0.000000 s_2_7  + 0.000000 s_2_1  > -998.760368
tt + 1000 s_1_7 > 0.0
tt - t_1_7 - 1000.000000 s_1_7  > -976.278047
tt + 1000 s_2_7 > 0.0
tt - t_2_7 - 1000.000000 s_2_7  > -964.652456
tt + 1000 s_1_8 > 0.0
tt - t_1_8 - 1000.000000 s_1_8  > -976.511489
tt + 1000 s_2_8 > 0.0
tt - t_2_8 - 1000.000000 s_2_8  > -968.379329
s_1_1 + s_2_1 = 1
s_1_2 + s_2_2 = 1
s_1_3 + s_2_3 = 1
s_1_4 + s_2_4 = 1
s_1_5 + s_2_5 = 1
s_1_6 + s_2_6 = 1
s_1_7 + s_2_7 = 1
s_1_8 + s_2_8 = 1
s_1_1 + s_1_2 + 1000 r_1_1_2 >= 2
- s_1_1 - s_1_2 - 1000 r_1_1_2 >= -1001
t_1_1 - t_1_2 - 1000.000000 u_1_1_2 - 0.000000 s_1_2  + 0.000000 s_1_7  + 2000.000000 r_1_1_2 > -983.972500
s_2_1 + s_2_2 + 1000 r_2_1_2 >= 2
- s_2_1 - s_2_2 - 1000 r_2_1_2 >= -1001
t_2_1 - t_2_2 - 1000.000000 u_2_1_2 - 0.000000 s_2_2  + 0.000000 s_2_7  + 2000.000000 r_2_1_2 > -979.424155
s_1_1 + s_1_3 + 1000 r_1_1_3 >= 2
- s_1_1 - s_1_3 - 1000 r_1_1_3 >= -1001
t_1_1 - t_1_3 - 1000.000000 u_1_1_3 - 0.000000 s_1_3  + 0.000000 s_1_8  + 0.000000 s_1_7  + 2000.000000 r_1_1_3 > -999.170000
s_2_1 + s_2_3 + 1000 r_2_1_3 >= 2
- s_2_1 - s_2_3 - 1000 r_2_1_3 >= -1001
t_2_1 - t_2_3 - 1000.000000 u_2_1_3 - 0.000000 s_2_3  + 0.000000 s_2_8  + 0.000000 s_2_7  + 2000.000000 r_2_1_3 > -997.978211
s_1_1 + s_1_4 + 1000 r_1_1_4 >= 2
- s_1_1 - s_1_4 - 1000 r_1_1_4 >= -1001
t_1_1 - t_1_4 - 1000.000000 u_1_1_4 - 0.000000 s_1_4  + 0.000000 s_1_7  + 2000.000000 r_1_1_4 > -998.250644
s_2_1 + s_2_4 + 1000 r_2_1_4 >= 2
- s_2_1 - s_2_4 - 1000 r_2_1_4 >= -1001
t_2_1 - t_2_4 - 1000.000000 u_2_1_4 - 0.000000 s_2_4  + 0.000000 s_2_7  + 2000.000000 r_2_1_4 > -995.159920
s_1_1 + s_1_5 + 1000 r_1_1_5 >= 2
- s_1_1 - s_1_5 - 1000 r_1_1_5 >= -1001
t_1_1 - t_1_5 - 1000.000000 u_1_1_5 - 0.000000 s_1_5  + 0.000000 s_1_8  + 2000.000000 r_1_1_5 > -992.276157
s_2_1 + s_2_5 + 1000 r_2_1_5 >= 2
- s_2_1 - s_2_5 - 1000 r_2_1_5 >= -1001
t_2_1 - t_2_5 - 1000.000000 u_2_1_5 - 0.000000 s_2_5  + 0.000000 s_2_8  + 2000.000000 r_2_1_5 > -990.518347
t_1_6 - t_1_1 - 1000.000000 s_1_1  + 0.000000 s_1_8  + 0.000000 s_1_7  > -983.993911
t_1_6 - t_2_1 - 1000.000000 s_2_1  + 0.000000 s_2_8  + 0.000000 s_2_7  > -980.360184
t_2_6 - t_1_1 - 1000.000000 s_1_1  + 0.000000 s_1_8  + 0.000000 s_1_7  > -983.993911
t_2_6 - t_2_1 - 1000.000000 s_2_1  + 0.000000 s_2_8  + 0.000000 s_2_7  > -980.360184
t_1_1 - t_1_7 - 1000.000000 s_1_7  > -976.278047
t_1_1 - t_2_7 - 1000.000000 s_2_7  > -964.652456
t_2_1 - t_1_7 - 1000.000000 s_1_7  > -976.278047
t_2_1 - t_2_7 - 1000.000000 s_2_7  > -964.652456
t_1_1 - t_1_8 - 1000.000000 s_1_8  > -976.511489
t_1_1 - t_2_8 - 1000.000000 s_2_8  > -968.379329
t_2_1 - t_1_8 - 1000.000000 s_1_8  > -976.511489
t_2_1 - t_2_8 - 1000.000000 s_2_8  > -968.379329
s_1_2 + s_1_1 + 1000 r_1_1_2 >= 2
- s_1_2 - s_1_1 - 1000 r_1_1_2 >= -1001
t_1_2 - t_1_1 + 1000.000000 u_1_1_2 - 0.000000 s_1_1  + 0.000000 s_1_8  + 0.000000 s_1_7  + 2000.000000 r_1_1_2 > 16.006089
s_2_2 + s_2_1 + 1000 r_2_1_2 >= 2
- s_2_2 - s_2_1 - 1000 r_2_1_2 >= -1001
t_2_2 - t_2_1 + 1000.000000 u_2_1_2 - 0.000000 s_2_1  + 0.000000 s_2_8  + 0.000000 s_2_7  + 2000.000000 r_2_1_2 > 19.639816
s_1_2 + s_1_3 + 1000 r_1_2_3 >= 2
- s_1_2 - s_1_3 - 1000 r_1_2_3 >= -1001
t_1_2 - t_1_3 - 1000.000000 u_1_2_3 - 0.000000 s_1_3  + 0.000000 s_1_8  + 0.000000 s_1_7  + 2000.000000 r_1_2_3 > -999.170000
s_2_2 + s_2_3 + 1000 r_2_2_3 >= 2
- s_2_2 - s_2_3 - 1000 r_2_2_3 >= -1001
t_2_2 - t_2_3 - 1000.000000 u_2_2_3 - 0.000000 s_2_3  + 0.000000 s_2_8  + 0.000000 s_2_7  + 2000.000000 r_2_2_3 > -997.978211
s_1_2 + s_1_4 + 1000 r_1_2_4 >= 2
- s_1_2 - s_1_4 - 1000 r_1_2_4 >= -1001
t_1_2 - t_1_4 - 1000.000000 u_1_2_4 - 0.000000 s_1_4  + 0.000000 s_1_7  + 2000.000000 r_1_2_4 > -998.250644
s_2_2 + s_2_4 + 1000 r_2_2_4 >= 2
- s_2_2 - s_2_4 - 1000 r_2_2_4 >= -1001
t_2_2 - t_2_4 - 1000.000000 u_2_2_4 - 0.000000 s_2_4  + 0.000000 s_2_7  + 2000.000000 r_2_2_4 > -995.159920
s_1_2 + s_1_5 + 1000 r_1_2_5 >= 2
- s_1_2 - s_1_5 - 1000 r_1_2_5 >= -1001
t_1_2 - t_1_5 - 1000.000000 u_1_2_5 - 0.000000 s_1_5  + 0.000000 s_1_8  + 2000.000000 r_1_2_5 > -992.276157
s_2_2 + s_2_5 + 1000 r_2_2_5 >= 2
- s_2_2 - s_2_5 - 1000 r_2_2_5 >= -1001
t_2_2 - t_2_5 - 1000.000000 u_2_2_5 - 0.000000 s_2_5  + 0.000000 s_2_8  + 2000.000000 r_2_2_5 > -990.518347
t_1_6 - t_1_2 - 1000.000000 s_1_2  + 0.000000 s_1_7  > -983.972500
t_1_6 - t_2_2 - 1000.000000 s_2_2  + 0.000000 s_2_7  > -979.424155
t_2_6 - t_1_2 - 1000.000000 s_1_2  + 0.000000 s_1_7  > -983.972500
t_2_6 - t_2_2 - 1000.000000 s_2_2  + 0.000000 s_2_7  > -979.424155
t_1_2 - t_1_7 - 1000.000000 s_1_7  > -976.278047
t_1_2 - t_2_7 - 1000.000000 s_2_7  > -964.652456
t_2_2 - t_1_7 - 1000.000000 s_1_7  > -976.278047
t_2_2 - t_2_7 - 1000.000000 s_2_7  > -964.652456
s_1_2 + s_1_8 + 1000 r_1_2_8 >= 2
- s_1_2 - s_1_8 - 1000 r_1_2_8 >= -1001
t_1_2 - t_1_8 - 1000.000000 u_1_2_8 - 0.000000 s_1_8  + 2000.000000 r_1_2_8 > -976.511489
s_2_2 + s_2_8 + 1000 r_2_2_8 >= 2
- s_2_2 - s_2_8 - 1000 r_2_2_8 >= -1001
t_2_2 - t_2_8 - 1000.000000 u_2_2_8 - 0.000000 s_2_8  + 2000.000000 r_2_2_8 > -968.379329
s_1_3 + s_1_1 + 1000 r_1_1_3 >= 2
- s_1_3 - s_1_1 - 1000 r_1_1_3 >= -1001
t_1_3 - t_1_1 + 1000.000000 u_1_1_3 - 0.000000 s_1_1  + 0.000000 s_1_8  + 0.000000 s_1_7  + 2000.000000 r_1_1_3 > 16.006089
s_2_3 + s_2_1 + 1000 r_2_1_3 >= 2
- s_2_3 - s_2_1 - 1000 r_2_1_3 >= -1001
t_2_3 - t_2_1 + 1000.000000 u_2_1_3 - 0.000000 s_2_1  + 0.000000 s_2_8  + 0.000000 s_2_7  + 2000.000000 r_2_1_3 > 19.639816
s_1_3 + s_1_2 + 1000 r_1_2_3 >= 2
- s_1_3 - s_1_2 - 1000 r_1_2_3 >= -1001
t_1_3 - t_1_2 + 1000.000000 u_1_2_3 - 0.000000 s_1_2  + 0.000000 s_1_7  + 2000.000000 r_1_2_3 > 16.027500
s_2_3 + s_2_2 + 1000 r_2_2_3 >= 2
- s_2_3 - s_2_2 - 1000 r_2_2_3 >= -1001
t_2_3 - t_2_2 + 1000.000000 u_2_2_3 - 0.000000 s_2_2  + 0.000000 s_2_7  + 2000.000000 r_2_2_3 > 20.575845
s_1_3 + s_1_4 + 1000 r_1_3_4 >= 2
- s_1_3 - s_1_4 - 1000 r_1_3_4 >= -1001
t_1_3 - t_1_4 - 1000.000000 u_1_3_4 - 0.000000 s_1_4  + 0.000000 s_1_7  + 2000.000000 r_1_3_4 > -998.250644
s_2_3 + s_2_4 + 1000 r_2_3_4 >= 2
- s_2_3 - s_2_4 - 1000 r_2_3_4 >= -1001
t_2_3 - t_2_4 - 1000.000000 u_2_3_4 - 0.000000 s_2_4  + 0.000000 s_2_7  + 2000.000000 r_2_3_4 > -995.159920
s_1_3 + s_1_5 + 1000 r_1_3_5 >= 2
- s_1_3 - s_1_5 - 1000 r_1_3_5 >= -1001
t_1_3 - t_1_5 - 1000.000000 u_1_3_5 - 0.000000 s_1_5  + 0.000000 s_1_8  + 2000.000000 r_1_3_5 > -992.276157
s_2_3 + s_2_5 + 1000 r_2_3_5 >= 2
- s_2_3 - s_2_5 - 1000 r_2_3_5 >= -1001
t_2_3 - t_2_5 - 1000.000000 u_2_3_5 - 0.000000 s_2_5  + 0.000000 s_2_8  + 2000.000000 r_2_3_5 > -990.518347
t_1_6 - t_1_3 - 1000.000000 s_1_3  + 0.000000 s_1_8  + 0.000000 s_1_7  > -999.170000
t_1_6 - t_2_3 - 1000.000000 s_2_3  + 0.000000 s_2_8  + 0.000000 s_2_7  > -997.978211
t_2_6 - t_1_3 - 1000.000000 s_1_3  + 0.000000 s_1_8  + 0.000000 s_1_7  > -999.170000
t_2_6 - t_2_3 - 1000.000000 s_2_3  + 0.000000 s_2_8  + 0.000000 s_2_7  > -997.978211
t_1_3 - t_1_7 - 1000.000000 s_1_7  > -976.278047
t_1_3 - t_2_7 - 1000.000000 s_2_7  > -964.652456
t_2_3 - t_1_7 - 1000.000000 s_1_7  > -976.278047
t_2_3 - t_2_7 - 1000.000000 s_2_7  > -964.652456
t_1_3 - t_1_8 - 1000.000000 s_1_8  > -976.511489
t_1_3 - t_2_8 - 1000.000000 s_2_8  > -968.379329
t_2_3 - t_1_8 - 1000.000000 s_1_8  > -976.511489
t_2_3 - t_2_8 - 1000.000000 s_2_8  > -968.379329
s_1_4 + s_1_1 + 1000 r_1_1_4 >= 2
- s_1_4 - s_1_1 - 1000 r_1_1_4 >= -1001
t_1_4 - t_1_1 + 1000.000000 u_1_1_4 - 0.000000 s_1_1  + 0.000000 s_1_8  + 0.000000 s_1_7  + 2000.000000 r_1_1_4 > 16.006089
s_2_4 + s_2_1 + 1000 r_2_1_4 >= 2
- s_2_4 - s_2_1 - 1000 r_2_1_4 >= -1001
t_2_4 - t_2_1 + 1000.000000 u_2_1_4 - 0.000000 s_2_1  + 0.000000 s_2_8  + 0.000000 s_2_7  + 2000.000000 r_2_1_4 > 19.639816
s_1_4 + s_1_2 + 1000 r_1_2_4 >= 2
- s_1_4 - s_1_2 - 1000 r_1_2_4 >= -1001
t_1_4 - t_1_2 + 1000.000000 u_1_2_4 - 0.000000 s_1_2  + 0.000000 s_1_7  + 2000.000000 r_1_2_4 > 16.027500
s_2_4 + s_2_2 + 1000 r_2_2_4 >= 2
- s_2_4 - s_2_2 - 1000 r_2_2_4 >= -1001
t_2_4 - t_2_2 + 1000.000000 u_2_2_4 - 0.000000 s_2_2  + 0.000000 s_2_7  + 2000.000000 r_2_2_4 > 20.575845
s_1_4 + s_1_3 + 1000 r_1_3_4 >= 2
- s_1_4 - s_1_3 - 1000 r_1_3_4 >= -1001
t_1_4 - t_1_3 + 1000.000000 u_1_3_4 - 0.000000 s_1_3  + 0.000000 s_1_8  + 0.000000 s_1_7  + 2000.000000 r_1_3_4 > 0.830000
s_2_4 + s_2_3 + 1000 r_2_3_4 >= 2
- s_2_4 - s_2_3 - 1000 r_2_3_4 >= -1001
t_2_4 - t_2_3 + 1000.000000 u_2_3_4 - 0.000000 s_2_3  + 0.000000 s_2_8  + 0.000000 s_2_7  + 2000.000000 r_2_3_4 > 2.021789
s_1_4 + s_1_5 + 1000 r_1_4_5 >= 2
- s_1_4 - s_1_5 - 1000 r_1_4_5 >= -1001
t_1_4 - t_1_5 - 1000.000000 u_1_4_5 - 0.000000 s_1_5  + 0.000000 s_1_8  + 2000.000000 r_1_4_5 > -992.276157
s_2_4 + s_2_5 + 1000 r_2_4_5 >= 2
- s_2_4 - s_2_5 - 1000 r_2_4_5 >= -1001
t_2_4 - t_2_5 - 1000.000000 u_2_4_5 - 0.000000 s_2_5  + 0.000000 s_2_8  + 2000.000000 r_2_4_5 > -990.518347
t_1_6 - t_1_4 - 1000.000000 s_1_4  + 0.000000 s_1_7  > -998.250644
t_1_6 - t_2_4 - 1000.000000 s_2_4  + 0.000000 s_2_7  > -995.159920
t_2_6 - t_1_4 - 1000.000000 s_1_4  + 0.000000 s_1_7  > -998.250644
t_2_6 - t_2_4 - 1000.000000 s_2_4  + 0.000000 s_2_7  > -995.159920
t_1_4 - t_1_7 - 1000.000000 s_1_7  > -976.278047
t_1_4 - t_2_7 - 1000.000000 s_2_7  > -964.652456
t_2_4 - t_1_7 - 1000.000000 s_1_7  > -976.278047
t_2_4 - t_2_7 - 1000.000000 s_2_7  > -964.652456
s_1_4 + s_1_8 + 1000 r_1_4_8 >= 2
- s_1_4 - s_1_8 - 1000 r_1_4_8 >= -1001
t_1_4 - t_1_8 - 1000.000000 u_1_4_8 - 0.000000 s_1_8  + 2000.000000 r_1_4_8 > -976.511489
s_2_4 + s_2_8 + 1000 r_2_4_8 >= 2
- s_2_4 - s_2_8 - 1000 r_2_4_8 >= -1001
t_2_4 - t_2_8 - 1000.000000 u_2_4_8 - 0.000000 s_2_8  + 2000.000000 r_2_4_8 > -968.379329
s_1_5 + s_1_1 + 1000 r_1_1_5 >= 2
- s_1_5 - s_1_1 - 1000 r_1_1_5 >= -1001
t_1_5 - t_1_1 + 1000.000000 u_1_1_5 - 0.000000 s_1_1  + 0.000000 s_1_8  + 0.000000 s_1_7  + 2000.000000 r_1_1_5 > 16.006089
s_2_5 + s_2_1 + 1000 r_2_1_5 >= 2
- s_2_5 - s_2_1 - 1000 r_2_1_5 >= -1001
t_2_5 - t_2_1 + 1000.000000 u_2_1_5 - 0.000000 s_2_1  + 0.000000 s_2_8  + 0.000000 s_2_7  + 2000.000000 r_2_1_5 > 19.639816
s_1_5 + s_1_2 + 1000 r_1_2_5 >= 2
- s_1_5 - s_1_2 - 1000 r_1_2_5 >= -1001
t_1_5 - t_1_2 + 1000.000000 u_1_2_5 - 0.000000 s_1_2  + 0.000000 s_1_7  + 2000.000000 r_1_2_5 > 16.027500
s_2_5 + s_2_2 + 1000 r_2_2_5 >= 2
- s_2_5 - s_2_2 - 1000 r_2_2_5 >= -1001
t_2_5 - t_2_2 + 1000.000000 u_2_2_5 - 0.000000 s_2_2  + 0.000000 s_2_7  + 2000.000000 r_2_2_5 > 20.575845
s_1_5 + s_1_3 + 1000 r_1_3_5 >= 2
- s_1_5 - s_1_3 - 1000 r_1_3_5 >= -1001
t_1_5 - t_1_3 + 1000.000000 u_1_3_5 - 0.000000 s_1_3  + 0.000000 s_1_8  + 0.000000 s_1_7  + 2000.000000 r_1_3_5 > 0.830000
s_2_5 + s_2_3 + 1000 r_2_3_5 >= 2
- s_2_5 - s_2_3 - 1000 r_2_3_5 >= -1001
t_2_5 - t_2_3 + 1000.000000 u_2_3_5 - 0.000000 s_2_3  + 0.000000 s_2_8  + 0.000000 s_2_7  + 2000.000000 r_2_3_5 > 2.021789
s_1_5 + s_1_4 + 1000 r_1_4_5 >= 2
- s_1_5 - s_1_4 - 1000 r_1_4_5 >= -1001
t_1_5 - t_1_4 + 1000.000000 u_1_4_5 - 0.000000 s_1_4  + 0.000000 s_1_7  + 2000.000000 r_1_4_5 > 1.749356
s_2_5 + s_2_4 + 1000 r_2_4_5 >= 2
- s_2_5 - s_2_4 - 1000 r_2_4_5 >= -1001
t_2_5 - t_2_4 + 1000.000000 u_2_4_5 - 0.000000 s_2_4  + 0.000000 s_2_7  + 2000.000000 r_2_4_5 > 4.840080
t_1_6 - t_1_5 - 1000.000000 s_1_5  + 0.000000 s_1_8  > -992.276157
t_1_6 - t_2_5 - 1000.000000 s_2_5  + 0.000000 s_2_8  > -990.518347
t_2_6 - t_1_5 - 1000.000000 s_1_5  + 0.000000 s_1_8  > -992.276157
t_2_6 - t_2_5 - 1000.000000 s_2_5  + 0.000000 s_2_8  > -990.518347
s_1_5 + s_1_7 + 1000 r_1_5_7 >= 2
- s_1_5 - s_1_7 - 1000 r_1_5_7 >= -1001
t_1_5 - t_1_7 - 1000.000000 u_1_5_7 - 0.000000 s_1_7  + 2000.000000 r_1_5_7 > -976.278047
s_2_5 + s_2_7 + 1000 r_2_5_7 >= 2
- s_2_5 - s_2_7 - 1000 r_2_5_7 >= -1001
t_2_5 - t_2_7 - 1000.000000 u_2_5_7 - 0.000000 s_2_7  + 2000.000000 r_2_5_7 > -964.652456
t_1_5 - t_1_8 - 1000.000000 s_1_8  > -976.511489
t_1_5 - t_2_8 - 1000.000000 s_2_8  > -968.379329
t_2_5 - t_1_8 - 1000.000000 s_1_8  > -976.511489
t_2_5 - t_2_8 - 1000.000000 s_2_8  > -968.379329
t_1_6 - t_1_7 - 1000.000000 s_1_7  > -976.278047
t_1_6 - t_2_7 - 1000.000000 s_2_7  > -964.652456
t_2_6 - t_1_7 - 1000.000000 s_1_7  > -976.278047
t_2_6 - t_2_7 - 1000.000000 s_2_7  > -964.652456
s_1_7 + s_1_5 + 1000 r_1_5_7 >= 2
- s_1_7 - s_1_5 - 1000 r_1_5_7 >= -1001
t_1_7 - t_1_5 + 1000.000000 u_1_5_7 - 0.000000 s_1_5  + 0.000000 s_1_8  + 2000.000000 r_1_5_7 > 7.723843
s_2_7 + s_2_5 + 1000 r_2_5_7 >= 2
- s_2_7 - s_2_5 - 1000 r_2_5_7 >= -1001
t_2_7 - t_2_5 + 1000.000000 u_2_5_7 - 0.000000 s_2_5  + 0.000000 s_2_8  + 2000.000000 r_2_5_7 > 9.481653
s_1_7 + s_1_8 + 1000 r_1_7_8 >= 2
- s_1_7 - s_1_8 - 1000 r_1_7_8 >= -1001
t_1_7 - t_1_8 - 1000.000000 u_1_7_8 - 0.000000 s_1_8  + 2000.000000 r_1_7_8 > -976.511489
s_2_7 + s_2_8 + 1000 r_2_7_8 >= 2
- s_2_7 - s_2_8 - 1000 r_2_7_8 >= -1001
t_2_7 - t_2_8 - 1000.000000 u_2_7_8 - 0.000000 s_2_8  + 2000.000000 r_2_7_8 > -968.379329
s_1_8 + s_1_2 + 1000 r_1_2_8 >= 2
- s_1_8 - s_1_2 - 1000 r_1_2_8 >= -1001
t_1_8 - t_1_2 + 1000.000000 u_1_2_8 - 0.000000 s_1_2  + 0.000000 s_1_7  + 2000.000000 r_1_2_8 > 16.027500
s_2_8 + s_2_2 + 1000 r_2_2_8 >= 2
- s_2_8 - s_2_2 - 1000 r_2_2_8 >= -1001
t_2_8 - t_2_2 + 1000.000000 u_2_2_8 - 0.000000 s_2_2  + 0.000000 s_2_7  + 2000.000000 r_2_2_8 > 20.575845
s_1_8 + s_1_4 + 1000 r_1_4_8 >= 2
- s_1_8 - s_1_4 - 1000 r_1_4_8 >= -1001
t_1_8 - t_1_4 + 1000.000000 u_1_4_8 - 0.000000 s_1_4  + 0.000000 s_1_7  + 2000.000000 r_1_4_8 > 1.749356
s_2_8 + s_2_4 + 1000 r_2_4_8 >= 2
- s_2_8 - s_2_4 - 1000 r_2_4_8 >= -1001
t_2_8 - t_2_4 + 1000.000000 u_2_4_8 - 0.000000 s_2_4  + 0.000000 s_2_7  + 2000.000000 r_2_4_8 > 4.840080
s_1_8 + s_1_7 + 1000 r_1_7_8 >= 2
- s_1_8 - s_1_7 - 1000 r_1_7_8 >= -1001
t_1_8 - t_1_7 + 1000.000000 u_1_7_8 - 0.000000 s_1_7  + 2000.000000 r_1_7_8 > 23.721953
s_2_8 + s_2_7 + 1000 r_2_7_8 >= 2
- s_2_8 - s_2_7 - 1000 r_2_7_8 >= -1001
t_2_8 - t_2_7 + 1000.000000 u_2_7_8 - 0.000000 s_2_7  + 2000.000000 r_2_7_8 > 35.347544
Binary
s_1_1
s_2_1
s_1_2
s_2_2
s_1_3
s_2_3
s_1_4
s_2_4
s_1_5
s_2_5
s_1_6
s_2_6
s_1_7
s_2_7
s_1_8
s_2_8
u_1_1_2
r_1_1_2
u_2_1_2
r_2_1_2
u_1_1_3
r_1_1_3
u_2_1_3
r_2_1_3
u_1_1_4
r_1_1_4
u_2_1_4
r_2_1_4
u_1_1_5
r_1_1_5
u_2_1_5
r_2_1_5
u_1_2_3
r_1_2_3
u_2_2_3
r_2_2_3
u_1_2_4
r_1_2_4
u_2_2_4
r_2_2_4
u_1_2_5
r_1_2_5
u_2_2_5
r_2_2_5
u_1_2_8
r_1_2_8
u_2_2_8
r_2_2_8
u_1_3_4
r_1_3_4
u_2_3_4
r_2_3_4
u_1_3_5
r_1_3_5
u_2_3_5
r_2_3_5
u_1_4_5
r_1_4_5
u_2_4_5
r_2_4_5
u_1_4_8
r_1_4_8
u_2_4_8
r_2_4_8
u_1_5_7
r_1_5_7
u_2_5_7
r_2_5_7
u_1_7_8
r_1_7_8
u_2_7_8
r_2_7_8

End
